(set-info :smt-lib-version 2.6)
(set-logic QF_FP)
(set-option :produce-models true)
(set-info :source |Random FP created by PyMPF|)
(set-info :license |https://www.gnu.org/licenses/gpl-3.0.html|)
(set-info :category random)
(set-info :status sat)
(declare-const x Float32)
(assert (= x (fp #b0 #b01110100 #b01000001100110110011000)))
;; x should be Float32(0x3A20CD98 [Rational(1317299, 2147483648), 0.000613])

(declare-const y Float32)
(assert (= y ((_ to_fp 8 24) #xFF800000)))
;; y should be Float32(-oo)

(declare-const z Float32)
(assert (= z (fp #b0 #b10010101 #b01110110111001111010011)))
;; z should be Float32(0x4ABB73D3 [Rational(12284883, 2), 6142441.500000])

(declare-const result Float32)
(assert (= result (fp.fma RTZ x y z)))
(assert (= result ((_ to_fp 8 24) #xFF800000)))
(check-sat)
(exit)
